44 36 40 50 10 1 7 46 2 1 8 5 26 30 51 49 19 1 13 16 12 52 3 1 22 9 1 31 14 55 24 53 25 45 1 33 11 6 54 48 39 17 41 1 37 38 4 15 47 21 1 42 29 23 28 20 1 43 32 27 34 35 18 1 44 36 40 50 10 1  (931)
Cost 1393.93

